Maximize
F 

Subject to
F - 5y120 - 15y133 - 10y39 - 10y17 - 20y112 - 20y150 - 15y2 - 20y28 - 10y15 - 15y8 - 5y74 - 15y72 - 15y9 - 20y168 - 5y128 - 5y115 - 5y171 - 10y41 - 20y176 - 10y175 - 5y54 - 20y80 - 10y130 - 5y189 - 20y138 - 10y61 - 5y75 - 5y179 - 15y144 - 10y139 = 0

x114x176x1 + x114x54x1 + x114x80x1 + x114x189x1 + x114x61x1 + x114x75x1 
<= 1
x187x189x1 + x187x61x1 + x187x75x1 
<= 1
x129x176x1 + x129x61x1 + x129x75x1 
<= 1
x10x189x1 + x10x61x1 + x10x75x1 
<= 2
x59x120x2 + x59x17x2 + x59x15x2 + x59x74x2 + x59x168x2 + x59x171x2 + x59x54x2 + x59x61x2 + x59x75x2 + x59x179x2 + x59x144x2 + x59x139x2 
<= 1
x84x171x2 + x84x61x2 + x84x75x2 + x84x179x2 + x84x144x2 + x84x139x2 
<= 2
x114x54x2 + x114x61x2 + x114x75x2 + x114x179x2 + x114x144x2 + x114x139x2 
<= 1
x134x17x2 + x134x15x2 + x134x74x2 + x134x168x2 + x134x171x2 + x134x54x2 + x134x61x2 + x134x75x2 + x134x179x2 + x134x144x2 + x134x139x2 
<= 1
x187x171x2 + x187x61x2 + x187x75x2 + x187x144x2 + x187x139x2 
<= 1
x116x120x2 + x116x17x2 + x116x15x2 + x116x74x2 + x116x168x2 + x116x171x2 + x116x54x2 + x116x61x2 + x116x75x2 + x116x179x2 + x116x144x2 + x116x139x2 
<= 1

x7x139x3 
<= 2
x129x139x3 
<= 1
x58x120x3 + x58x133x3 + x58x39x3 + x58x150x3 + x58x2x3 + x58x28x3 + x58x8x3 + x58x74x3 + x58x72x3 + x58x168x3 + x58x115x3 + x58x171x3 + x58x41x3 + x58x175x3 + x58x130x3 + x58x138x3 + x58x139x3 
<= 2
x116x120x3 + x116x133x3 + x116x39x3 + x116x150x3 + x116x2x3 + x116x28x3 + x116x8x3 + x116x74x3 + x116x72x3 + x116x168x3 + x116x115x3 + x116x171x3 + x116x41x3 + x116x175x3 + x116x130x3 + x116x138x3 + x116x139x3 
<= 1


x59x120x2 + x116x120x2 
- x120x0x2
- x120x15x2 - x120x168x2 - x120x171x2 - x120x54x2 - x120x61x2 - x120x75x2 - x120x179x2 - x120x144x2 - x120x139x2 
= 0
x58x120x3 + x116x120x3 
- x120x0x3
- x120x2x3 - x120x72x3 - x120x168x3 - x120x115x3 - x120x171x3 - x120x41x3 - x120x175x3 - x120x130x3 - x120x138x3 - x120x139x3 
= 0



x58x133x3 + x116x133x3 
- x133x0x3
- x133x2x3 - x133x8x3 - x133x74x3 - x133x72x3 - x133x168x3 - x133x115x3 - x133x171x3 - x133x41x3 - x133x175x3 - x133x130x3 - x133x138x3 - x133x139x3 
= 0



x58x39x3 + x116x39x3 
- x39x0x3
- x39x28x3 - x39x8x3 - x39x74x3 - x39x168x3 - x39x115x3 - x39x171x3 - x39x41x3 - x39x175x3 - x39x130x3 - x39x138x3 - x39x139x3 
= 0


- x17x176x1 - x17x54x1 - x17x80x1 - x17x189x1 - x17x61x1 - x17x75x1 
= 0
x59x17x2 + x134x17x2 + x116x17x2 
- x17x0x2
- x17x168x2 - x17x171x2 - x17x54x2 - x17x61x2 - x17x75x2 - x17x179x2 - x17x144x2 - x17x139x2 
= 0



- x112x115x1 - x112x176x1 - x112x54x1 - x112x80x1 - x112x189x1 - x112x61x1 - x112x75x1 
= 0




- x150x15x1 - x150x9x1 - x150x128x1 - x150x115x1 - x150x176x1 - x150x54x1 - x150x80x1 - x150x189x1 - x150x61x1 - x150x75x1 
= 0

x58x150x3 + x116x150x3 
- x150x0x3
- x150x8x3 - x150x74x3 - x150x168x3 - x150x115x3 - x150x171x3 - x150x41x3 - x150x175x3 - x150x130x3 - x150x138x3 - x150x139x3 
= 0



x58x2x3 + x116x2x3 + x120x2x3 + x133x2x3 
- x2x0x3
- x2x72x3 - x2x115x3 - x2x41x3 - x2x175x3 - x2x130x3 - x2x138x3 - x2x139x3 
= 0


- x28x9x1 - x28x128x1 - x28x115x1 - x28x176x1 - x28x54x1 - x28x80x1 - x28x189x1 - x28x61x1 - x28x75x1 
= 0

x58x28x3 + x116x28x3 + x39x28x3 
- x28x0x3
- x28x8x3 - x28x74x3 - x28x168x3 - x28x115x3 - x28x171x3 - x28x41x3 - x28x175x3 - x28x130x3 - x28x138x3 - x28x139x3 
= 0

x150x15x1 
- x15x0x1
- x15x115x1 - x15x176x1 - x15x54x1 - x15x80x1 - x15x189x1 - x15x61x1 - x15x75x1 
= 0
x59x15x2 + x134x15x2 + x116x15x2 + x120x15x2 
- x15x0x2
- x15x54x2 - x15x61x2 - x15x75x2 - x15x179x2 - x15x144x2 - x15x139x2 
= 0




x58x8x3 + x116x8x3 + x133x8x3 + x39x8x3 + x150x8x3 + x28x8x3 
- x8x0x3
- x8x41x3 - x8x175x3 - x8x130x3 - x8x138x3 - x8x139x3 
= 0


x59x74x2 + x134x74x2 + x116x74x2 
- x74x0x2
- x74x168x2 - x74x171x2 - x74x54x2 - x74x61x2 - x74x75x2 - x74x179x2 - x74x144x2 - x74x139x2 
= 0
x58x74x3 + x116x74x3 + x133x74x3 + x39x74x3 + x150x74x3 + x28x74x3 
- x74x0x3
- x74x168x3 - x74x171x3 - x74x41x3 - x74x175x3 - x74x130x3 - x74x138x3 - x74x139x3 
= 0



x58x72x3 + x116x72x3 + x120x72x3 + x133x72x3 + x2x72x3 
- x72x0x3
- x72x139x3 
= 0

x150x9x1 + x28x9x1 
- x9x0x1
- x9x128x1 - x9x54x1 - x9x80x1 - x9x189x1 - x9x61x1 - x9x75x1 
= 0




x59x168x2 + x134x168x2 + x116x168x2 + x120x168x2 + x17x168x2 + x74x168x2 
- x168x0x2
- x168x171x2 - x168x61x2 - x168x75x2 - x168x179x2 - x168x144x2 - x168x139x2 
= 0
x58x168x3 + x116x168x3 + x120x168x3 + x133x168x3 + x39x168x3 + x150x168x3 + x28x168x3 + x74x168x3 
- x168x0x3
- x168x171x3 - x168x138x3 - x168x139x3 
= 0

x150x128x1 + x28x128x1 + x9x128x1 
- x128x0x1
- x128x54x1 - x128x80x1 - x128x189x1 - x128x61x1 - x128x75x1 
= 0



x112x115x1 + x150x115x1 + x28x115x1 + x15x115x1 
- x115x0x1
- x115x54x1 - x115x80x1 - x115x61x1 - x115x75x1 
= 0

x58x115x3 + x116x115x3 + x120x115x3 + x133x115x3 + x39x115x3 + x150x115x3 + x2x115x3 + x28x115x3 
- x115x0x3
- x115x41x3 - x115x130x3 - x115x138x3 - x115x139x3 
= 0


x59x171x2 + x84x171x2 + x134x171x2 + x187x171x2 + x116x171x2 + x120x171x2 + x17x171x2 + x74x171x2 + x168x171x2 
- x171x0x2
- x171x144x2 - x171x139x2 
= 0
x58x171x3 + x116x171x3 + x120x171x3 + x133x171x3 + x39x171x3 + x150x171x3 + x28x171x3 + x74x171x3 + x168x171x3 
- x171x0x3
- x171x139x3 
= 0



x58x41x3 + x116x41x3 + x120x41x3 + x133x41x3 + x39x41x3 + x150x41x3 + x2x41x3 + x28x41x3 + x8x41x3 + x74x41x3 + x115x41x3 
- x41x0x3
- x41x130x3 - x41x139x3 
= 0

x114x176x1 + x129x176x1 + x17x176x1 + x112x176x1 + x150x176x1 + x28x176x1 + x15x176x1 
- x176x0x1
- x176x61x1 - x176x75x1 
= 0





x58x175x3 + x116x175x3 + x120x175x3 + x133x175x3 + x39x175x3 + x150x175x3 + x2x175x3 + x28x175x3 + x8x175x3 + x74x175x3 
- x175x0x3
- x175x138x3 - x175x139x3 
= 0

x114x54x1 + x17x54x1 + x112x54x1 + x150x54x1 + x28x54x1 + x15x54x1 + x9x54x1 + x128x54x1 + x115x54x1 
- x54x0x1
- x54x80x1 
= 0
x59x54x2 + x114x54x2 + x134x54x2 + x116x54x2 + x120x54x2 + x17x54x2 + x15x54x2 + x74x54x2 
- x54x0x2
- x54x179x2 - x54x144x2 - x54x139x2 
= 0


x114x80x1 + x17x80x1 + x112x80x1 + x150x80x1 + x28x80x1 + x15x80x1 + x9x80x1 + x128x80x1 + x115x80x1 + x54x80x1 
- x80x0x1

= 0





x58x130x3 + x116x130x3 + x120x130x3 + x133x130x3 + x39x130x3 + x150x130x3 + x2x130x3 + x28x130x3 + x8x130x3 + x74x130x3 + x115x130x3 + x41x130x3 
- x130x0x3
- x130x139x3 
= 0

x114x189x1 + x187x189x1 + x10x189x1 + x17x189x1 + x112x189x1 + x150x189x1 + x28x189x1 + x15x189x1 + x9x189x1 + x128x189x1 
- x189x0x1

= 0





x58x138x3 + x116x138x3 + x120x138x3 + x133x138x3 + x39x138x3 + x150x138x3 + x2x138x3 + x28x138x3 + x8x138x3 + x74x138x3 + x168x138x3 + x115x138x3 + x175x138x3 
- x138x0x3

= 0

x114x61x1 + x187x61x1 + x129x61x1 + x10x61x1 + x17x61x1 + x112x61x1 + x150x61x1 + x28x61x1 + x15x61x1 + x9x61x1 + x128x61x1 + x115x61x1 + x176x61x1 
- x61x0x1

= 0
x59x61x2 + x84x61x2 + x114x61x2 + x134x61x2 + x187x61x2 + x116x61x2 + x120x61x2 + x17x61x2 + x15x61x2 + x74x61x2 + x168x61x2 
- x61x0x2
- x61x144x2 - x61x139x2 
= 0


x114x75x1 + x187x75x1 + x129x75x1 + x10x75x1 + x17x75x1 + x112x75x1 + x150x75x1 + x28x75x1 + x15x75x1 + x9x75x1 + x128x75x1 + x115x75x1 + x176x75x1 
- x75x0x1

= 0
x59x75x2 + x84x75x2 + x114x75x2 + x134x75x2 + x187x75x2 + x116x75x2 + x120x75x2 + x17x75x2 + x15x75x2 + x74x75x2 + x168x75x2 
- x75x0x2
- x75x144x2 - x75x139x2 
= 0



x59x179x2 + x84x179x2 + x114x179x2 + x134x179x2 + x116x179x2 + x120x179x2 + x17x179x2 + x15x179x2 + x74x179x2 + x168x179x2 + x54x179x2 
- x179x0x2

= 0



x59x144x2 + x84x144x2 + x114x144x2 + x134x144x2 + x187x144x2 + x116x144x2 + x120x144x2 + x17x144x2 + x15x144x2 + x74x144x2 + x168x144x2 + x171x144x2 + x54x144x2 + x61x144x2 + x75x144x2 
- x144x0x2

= 0



x59x139x2 + x84x139x2 + x114x139x2 + x134x139x2 + x187x139x2 + x116x139x2 + x120x139x2 + x17x139x2 + x15x139x2 + x74x139x2 + x168x139x2 + x171x139x2 + x54x139x2 + x61x139x2 + x75x139x2 
- x139x0x2

= 0
x7x139x3 + x129x139x3 + x58x139x3 + x116x139x3 + x120x139x3 + x133x139x3 + x39x139x3 + x150x139x3 + x2x139x3 + x28x139x3 + x8x139x3 + x74x139x3 + x72x139x3 + x168x139x3 + x115x139x3 + x171x139x3 + x41x139x3 + x175x139x3 + x130x139x3 
- x139x0x3

= 0

1y120 - x59x120x2 - x116x120x2 = 0
1y120 - x58x120x3 - x116x120x3 = 0
2y133 - x58x133x3 - x116x133x3 = 0
2y39 - x58x39x3 - x116x39x3 = 0
1y17 = 0
1y17 - x59x17x2 - x134x17x2 - x116x17x2 = 0
2y112 = 0
1y150 = 0
1y150 - x58x150x3 - x116x150x3 = 0
2y2 - x58x2x3 - x116x2x3 - x120x2x3 - x133x2x3 = 0
1y28 = 0
1y28 - x58x28x3 - x116x28x3 - x39x28x3 = 0
1y15 - x150x15x1 = 0
1y15 - x59x15x2 - x134x15x2 - x116x15x2 - x120x15x2 = 0
2y8 - x58x8x3 - x116x8x3 - x133x8x3 - x39x8x3 - x150x8x3 - x28x8x3 = 0
1y74 - x59x74x2 - x134x74x2 - x116x74x2 = 0
1y74 - x58x74x3 - x116x74x3 - x133x74x3 - x39x74x3 - x150x74x3 - x28x74x3 = 0
2y72 - x58x72x3 - x116x72x3 - x120x72x3 - x133x72x3 - x2x72x3 = 0
2y9 - x150x9x1 - x28x9x1 = 0
1y168 - x59x168x2 - x134x168x2 - x116x168x2 - x120x168x2 - x17x168x2 - x74x168x2 = 0
1y168 - x58x168x3 - x116x168x3 - x120x168x3 - x133x168x3 - x39x168x3 - x150x168x3 - x28x168x3 - x74x168x3 = 0
2y128 - x150x128x1 - x28x128x1 - x9x128x1 = 0
1y115 - x112x115x1 - x150x115x1 - x28x115x1 - x15x115x1 = 0
1y115 - x58x115x3 - x116x115x3 - x120x115x3 - x133x115x3 - x39x115x3 - x150x115x3 - x2x115x3 - x28x115x3 = 0
1y171 - x59x171x2 - x84x171x2 - x134x171x2 - x187x171x2 - x116x171x2 - x120x171x2 - x17x171x2 - x74x171x2 - x168x171x2 = 0
1y171 - x58x171x3 - x116x171x3 - x120x171x3 - x133x171x3 - x39x171x3 - x150x171x3 - x28x171x3 - x74x171x3 - x168x171x3 = 0
2y41 - x58x41x3 - x116x41x3 - x120x41x3 - x133x41x3 - x39x41x3 - x150x41x3 - x2x41x3 - x28x41x3 - x8x41x3 - x74x41x3 - x115x41x3 = 0
2y176 - x114x176x1 - x129x176x1 - x17x176x1 - x112x176x1 - x150x176x1 - x28x176x1 - x15x176x1 = 0
2y175 - x58x175x3 - x116x175x3 - x120x175x3 - x133x175x3 - x39x175x3 - x150x175x3 - x2x175x3 - x28x175x3 - x8x175x3 - x74x175x3 = 0
1y54 - x114x54x1 - x17x54x1 - x112x54x1 - x150x54x1 - x28x54x1 - x15x54x1 - x9x54x1 - x128x54x1 - x115x54x1 = 0
1y54 - x59x54x2 - x114x54x2 - x134x54x2 - x116x54x2 - x120x54x2 - x17x54x2 - x15x54x2 - x74x54x2 = 0
2y80 - x114x80x1 - x17x80x1 - x112x80x1 - x150x80x1 - x28x80x1 - x15x80x1 - x9x80x1 - x128x80x1 - x115x80x1 - x54x80x1 = 0
2y130 - x58x130x3 - x116x130x3 - x120x130x3 - x133x130x3 - x39x130x3 - x150x130x3 - x2x130x3 - x28x130x3 - x8x130x3 - x74x130x3 - x115x130x3 - x41x130x3 = 0
2y189 - x114x189x1 - x187x189x1 - x10x189x1 - x17x189x1 - x112x189x1 - x150x189x1 - x28x189x1 - x15x189x1 - x9x189x1 - x128x189x1 = 0
2y138 - x58x138x3 - x116x138x3 - x120x138x3 - x133x138x3 - x39x138x3 - x150x138x3 - x2x138x3 - x28x138x3 - x8x138x3 - x74x138x3 - x168x138x3 - x115x138x3 - x175x138x3 = 0
1y61 - x114x61x1 - x187x61x1 - x129x61x1 - x10x61x1 - x17x61x1 - x112x61x1 - x150x61x1 - x28x61x1 - x15x61x1 - x9x61x1 - x128x61x1 - x115x61x1 - x176x61x1 = 0
1y61 - x59x61x2 - x84x61x2 - x114x61x2 - x134x61x2 - x187x61x2 - x116x61x2 - x120x61x2 - x17x61x2 - x15x61x2 - x74x61x2 - x168x61x2 = 0
1y75 - x114x75x1 - x187x75x1 - x129x75x1 - x10x75x1 - x17x75x1 - x112x75x1 - x150x75x1 - x28x75x1 - x15x75x1 - x9x75x1 - x128x75x1 - x115x75x1 - x176x75x1 = 0
1y75 - x59x75x2 - x84x75x2 - x114x75x2 - x134x75x2 - x187x75x2 - x116x75x2 - x120x75x2 - x17x75x2 - x15x75x2 - x74x75x2 - x168x75x2 = 0
2y179 - x59x179x2 - x84x179x2 - x114x179x2 - x134x179x2 - x116x179x2 - x120x179x2 - x17x179x2 - x15x179x2 - x74x179x2 - x168x179x2 - x54x179x2 = 0
2y144 - x59x144x2 - x84x144x2 - x114x144x2 - x134x144x2 - x187x144x2 - x116x144x2 - x120x144x2 - x17x144x2 - x15x144x2 - x74x144x2 - x168x144x2 - x171x144x2 - x54x144x2 - x61x144x2 - x75x144x2 = 0
1y139 - x59x139x2 - x84x139x2 - x114x139x2 - x134x139x2 - x187x139x2 - x116x139x2 - x120x139x2 - x17x139x2 - x15x139x2 - x74x139x2 - x168x139x2 - x171x139x2 - x54x139x2 - x61x139x2 - x75x139x2 = 0
1y139 - x7x139x3 - x129x139x3 - x58x139x3 - x116x139x3 - x120x139x3 - x133x139x3 - x39x139x3 - x150x139x3 - x2x139x3 - x28x139x3 - x8x139x3 - x74x139x3 - x72x139x3 - x168x139x3 - x115x139x3 - x171x139x3 - x41x139x3 - x175x139x3 - x130x139x3 = 0

s59 - s120 + 7.770329z59z120z2 <= 6.30
s59 - s17 + 7.637482z59z17z2 <= 6.30
s59 - s15 + 7.867505z59z15z2 <= 6.30
s59 - s74 + 7.882505z59z74z2 <= 6.30
s59 - s168 + 7.838699z59z168z2 <= 6.30
s59 - s171 + 7.785356z59z171z2 <= 6.30
s59 - s54 + 8.099404z59z54z2 <= 6.30
s59 - s61 + 7.968209z59z61z2 <= 6.30
s59 - s75 + 7.901646z59z75z2 <= 6.30
s59 - s179 + 8.177822z59z179z2 <= 6.30
s59 - s144 + 7.887063z59z144z2 <= 6.30
s59 - s139 + 7.987681z59z139z2 <= 6.30
s84 - s171 + 8.653407z84z171z2 <= 7.33
s84 - s61 + 9.043106z84z61z2 <= 7.33
s84 - s75 + 9.006122z84z75z2 <= 7.33
s84 - s179 + 9.181817z84z179z2 <= 7.33
s84 - s144 + 9.006023z84z144z2 <= 7.33
s84 - s139 + 9.070502z84z139z2 <= 7.33
s114 - s176 + 8.663395z114z176z1 <= 7.47
s114 - s54 + 8.998792z114z54z1 <= 7.47
s114 - s54 + 8.998792z114z54z2 <= 7.47
s114 - s80 + 8.998245z114z80z1 <= 7.47
s114 - s189 + 9.007793z114z189z1 <= 7.47
s114 - s61 + 8.835514z114z61z1 <= 7.47
s114 - s61 + 8.835514z114z61z2 <= 7.47
s114 - s75 + 8.762257z114z75z1 <= 7.47
s114 - s75 + 8.762257z114z75z2 <= 7.47
s114 - s179 + 9.079068z114z179z2 <= 7.47
s114 - s144 + 8.747511z114z144z2 <= 7.47
s114 - s139 + 8.851696z114z139z2 <= 7.47
s134 - s17 + 8.219303z134z17z2 <= 6.97
s134 - s15 + 8.297727z134z15z2 <= 6.97
s134 - s74 + 8.196190z134z74z2 <= 6.97
s134 - s168 + 8.166564z134z168z2 <= 6.97
s134 - s171 + 8.158087z134z171z2 <= 6.97
s134 - s54 + 8.457748z134z54z2 <= 6.97
s134 - s61 + 8.404596z134z61z2 <= 6.97
s134 - s75 + 8.388826z134z75z2 <= 6.97
s134 - s179 + 8.529381z134z179z2 <= 6.97
s134 - s144 + 8.400657z134z144z2 <= 6.97
s134 - s139 + 8.435017z134z139z2 <= 6.97
s7 - s139 + 9.162014z7z139z3 <= 7.60
s187 - s171 + 8.785419z187z171z2 <= 7.62
s187 - s189 + 9.010767z187z189z1 <= 7.62
s187 - s61 + 9.172413z187z61z1 <= 7.62
s187 - s61 + 9.172413z187z61z2 <= 7.62
s187 - s75 + 9.153661z187z75z1 <= 7.62
s187 - s75 + 9.153661z187z75z2 <= 7.62
s187 - s144 + 9.162830z187z144z2 <= 7.62
s187 - s139 + 9.202704z187z139z2 <= 7.62
s129 - s176 + 8.929187z129z176z1 <= 7.69
s129 - s61 + 9.145832z129z61z1 <= 7.69
s129 - s75 + 9.053990z129z75z1 <= 7.69
s129 - s139 + 9.153222z129z139z3 <= 7.69
s10 - s189 + 8.942636z10z189z1 <= 7.75
s10 - s61 + 9.082636z10z61z1 <= 7.75
s10 - s75 + 9.109303z10z75z1 <= 7.75
s58 - s120 + 7.406772z58z120z3 <= 5.97
s58 - s133 + 7.467622z58z133z3 <= 5.97
s58 - s39 + 7.562962z58z39z3 <= 5.97
s58 - s150 + 7.588931z58z150z3 <= 5.97
s58 - s2 + 7.423891z58z2z3 <= 5.97
s58 - s28 + 7.618546z58z28z3 <= 5.97
s58 - s8 + 7.630546z58z8z3 <= 5.97
s58 - s74 + 7.589832z58z74z3 <= 5.97
s58 - s72 + 7.279409z58z72z3 <= 5.97
s58 - s168 + 7.558806z58z168z3 <= 5.97
s58 - s115 + 7.596992z58z115z3 <= 5.97
s58 - s171 + 7.519824z58z171z3 <= 5.97
s58 - s41 + 7.662565z58z41z3 <= 5.97
s58 - s175 + 7.803867z58z175z3 <= 5.97
s58 - s130 + 7.659045z58z130z3 <= 5.97
s58 - s138 + 7.867420z58z138z3 <= 5.97
s58 - s139 + 7.618271z58z139z3 <= 5.97
s116 - s120 + 7.410202z116z120z2 <= 5.97
s116 - s120 + 7.410202z116z120z3 <= 5.97
s116 - s133 + 7.479465z116z133z3 <= 5.97
s116 - s39 + 7.608052z116z39z3 <= 5.97
s116 - s17 + 7.487473z116z17z2 <= 5.97
s116 - s150 + 7.615152z116z150z3 <= 5.97
s116 - s2 + 7.423382z116z2z3 <= 5.97
s116 - s28 + 7.653065z116z28z3 <= 5.97
s116 - s15 + 7.517032z116z15z2 <= 5.97
s116 - s8 + 7.676603z116z8z3 <= 5.97
s116 - s74 + 7.644948z116z74z2 <= 5.97
s116 - s74 + 7.644948z116z74z3 <= 5.97
s116 - s72 + 7.235414z116z72z3 <= 5.97
s116 - s168 + 7.622993z116z168z2 <= 5.97
s116 - s168 + 7.622993z116z168z3 <= 5.97
s116 - s115 + 7.603649z116z115z3 <= 5.97
s116 - s171 + 7.593395z116z171z2 <= 5.97
s116 - s171 + 7.593395z116z171z3 <= 5.97
s116 - s41 + 7.670507z116z41z3 <= 5.97
s116 - s175 + 7.829069z116z175z3 <= 5.97
s116 - s54 + 7.774681z116z54z2 <= 5.97
s116 - s130 + 7.663333z116z130z3 <= 5.97
s116 - s138 + 7.894938z116z138z3 <= 5.97
s116 - s61 + 7.598932z116z61z2 <= 5.97
s116 - s75 + 7.511438z116z75z2 <= 5.97
s116 - s179 + 7.854936z116z179z2 <= 5.97
s116 - s144 + 7.484198z116z144z2 <= 5.97
s116 - s139 + 7.609235z116z139z2 <= 5.97
s116 - s139 + 7.609235z116z139z3 <= 5.97
s120 - s2 + 9.244038z120z2z3 <= 8.22
s120 - s15 + 9.326875z120z15z2 <= 8.22
s120 - s72 + 9.456738z120z72z3 <= 8.22
s120 - s168 + 9.631069z120z168z2 <= 8.22
s120 - s168 + 9.631069z120z168z3 <= 8.22
s120 - s115 + 9.413448z120z115z3 <= 8.22
s120 - s171 + 9.674117z120z171z2 <= 8.22
s120 - s171 + 9.674117z120z171z3 <= 8.22
s120 - s41 + 9.480342z120z41z3 <= 8.22
s120 - s175 + 9.653334z120z175z3 <= 8.22
s120 - s54 + 9.587394z120z54z2 <= 8.22
s120 - s130 + 9.473684z120z130z3 <= 8.22
s120 - s138 + 9.721598z120z138z3 <= 8.22
s120 - s61 + 9.418215z120z61z2 <= 8.22
s120 - s75 + 9.361735z120z75z2 <= 8.22
s120 - s179 + 9.667213z120z179z2 <= 8.22
s120 - s144 + 9.366212z120z144z2 <= 8.22
s120 - s139 + 9.437665z120z139z2 <= 8.22
s120 - s139 + 9.437665z120z139z3 <= 8.22
s133 - s2 + 9.300278z133z2z3 <= 8.22
s133 - s8 + 9.509213z133z8z3 <= 8.22
s133 - s74 + 9.539026z133z74z3 <= 8.22
s133 - s72 + 9.534466z133z72z3 <= 8.22
s133 - s168 + 9.586727z133z168z3 <= 8.22
s133 - s115 + 9.350980z133z115z3 <= 8.22
s133 - s171 + 9.643740z133z171z3 <= 8.22
s133 - s41 + 9.415164z133z41z3 <= 8.22
s133 - s175 + 9.576590z133z175z3 <= 8.22
s133 - s130 + 9.414137z133z130z3 <= 8.22
s133 - s138 + 9.644630z133z138z3 <= 8.22
s133 - s139 + 9.408797z133z139z3 <= 8.22
s39 - s28 + 9.344751z39z28z3 <= 8.25
s39 - s8 + 9.318638z39z8z3 <= 8.25
s39 - s74 + 9.336923z39z74z3 <= 8.25
s39 - s168 + 9.408044z39z168z3 <= 8.25
s39 - s115 + 9.516833z39z115z3 <= 8.25
s39 - s171 + 9.495854z39z171z3 <= 8.25
s39 - s41 + 9.533236z39z41z3 <= 8.25
s39 - s175 + 9.534801z39z175z3 <= 8.25
s39 - s130 + 9.554631z39z130z3 <= 8.25
s39 - s138 + 9.583400z39z138z3 <= 8.25
s39 - s139 + 9.621543z39z139z3 <= 8.25
s17 - s168 + 9.612481z17z168z2 <= 8.30
s17 - s171 + 9.520404z17z171z2 <= 8.30
s17 - s176 + 9.917990z17z176z1 <= 8.30
s17 - s54 + 10.023019z17z54z1 <= 8.30
s17 - s54 + 10.023019z17z54z2 <= 8.30
s17 - s80 + 10.026667z17z80z1 <= 8.30
s17 - s189 + 9.778980z17z189z1 <= 8.30
s17 - s61 + 9.987185z17z61z1 <= 8.30
s17 - s61 + 9.987185z17z61z2 <= 8.30
s17 - s75 + 9.966567z17z75z1 <= 8.30
s17 - s75 + 9.966567z17z75z2 <= 8.30
s17 - s179 + 10.088050z17z179z2 <= 8.30
s17 - s144 + 9.973828z17z144z2 <= 8.30
s17 - s139 + 10.017434z17z139z2 <= 8.30
s112 - s115 + 9.694823z112z115z1 <= 8.31
s112 - s176 + 9.459072z112z176z1 <= 8.31
s112 - s54 + 9.873205z112z54z1 <= 8.31
s112 - s80 + 9.871348z112z80z1 <= 8.31
s112 - s189 + 9.939109z112z189z1 <= 8.31
s112 - s61 + 9.677212z112z61z1 <= 8.31
s112 - s75 + 9.584064z112z75z1 <= 8.31
s150 - s15 + 9.485492z150z15z1 <= 8.33
s150 - s8 + 9.490139z150z8z3 <= 8.33
s150 - s74 + 9.551610z150z74z3 <= 8.33
s150 - s9 + 9.425452z150z9z1 <= 8.33
s150 - s168 + 9.625221z150z168z3 <= 8.33
s150 - s128 + 9.457367z150z128z1 <= 8.33
s150 - s115 + 9.463500z150z115z1 <= 8.33
s150 - s115 + 9.463500z150z115z3 <= 8.33
s150 - s171 + 9.709063z150z171z3 <= 8.33
s150 - s41 + 9.476363z150z41z3 <= 8.33
s150 - s176 + 9.665526z150z176z1 <= 8.33
s150 - s175 + 9.544993z150z175z3 <= 8.33
s150 - s54 + 9.515712z150z54z1 <= 8.33
s150 - s80 + 9.518208z150z80z1 <= 8.33
s150 - s130 + 9.497199z150z130z3 <= 8.33
s150 - s189 + 9.586472z150z189z1 <= 8.33
s150 - s138 + 9.609841z150z138z3 <= 8.33
s150 - s61 + 9.536667z150z61z1 <= 8.33
s150 - s75 + 9.593734z150z75z1 <= 8.33
s150 - s139 + 9.570092z150z139z3 <= 8.33
s2 - s72 + 9.618514z2z72z3 <= 8.38
s2 - s115 + 9.561965z2z115z3 <= 8.38
s2 - s41 + 9.628909z2z41z3 <= 8.38
s2 - s175 + 9.809366z2z175z3 <= 8.38
s2 - s130 + 9.620092z2z130z3 <= 8.38
s2 - s138 + 9.877907z2z138z3 <= 8.38
s2 - s139 + 9.576977z2z139z3 <= 8.38
s28 - s8 + 9.474281z28z8z3 <= 8.38
s28 - s74 + 9.547067z28z74z3 <= 8.38
s28 - s9 + 9.493529z28z9z1 <= 8.38
s28 - s168 + 9.628015z28z168z3 <= 8.38
s28 - s128 + 9.499257z28z128z1 <= 8.38
s28 - s115 + 9.580444z28z115z1 <= 8.38
s28 - s115 + 9.580444z28z115z3 <= 8.38
s28 - s171 + 9.719543z28z171z3 <= 8.38
s28 - s41 + 9.580555z28z41z3 <= 8.38
s28 - s176 + 9.780000z28z176z1 <= 8.38
s28 - s175 + 9.577428z28z175z3 <= 8.38
s28 - s54 + 9.583197z28z54z1 <= 8.38
s28 - s80 + 9.587632z28z80z1 <= 8.38
s28 - s130 + 9.604895z28z130z3 <= 8.38
s28 - s189 + 9.567736z28z189z1 <= 8.38
s28 - s138 + 9.633421z28z138z3 <= 8.38
s28 - s61 + 9.654064z28z61z1 <= 8.38
s28 - s75 + 9.713200z28z75z1 <= 8.38
s28 - s139 + 9.686956z28z139z3 <= 8.38
s15 - s115 + 9.596667z15z115z1 <= 8.51
s15 - s176 + 9.694391z15z176z1 <= 8.51
s15 - s54 + 9.771958z15z54z1 <= 8.51
s15 - s54 + 9.771958z15z54z2 <= 8.51
s15 - s80 + 9.770342z15z80z1 <= 8.51
s15 - s189 + 9.914860z15z189z1 <= 8.51
s15 - s61 + 9.618526z15z61z1 <= 8.51
s15 - s61 + 9.618526z15z61z2 <= 8.51
s15 - s75 + 9.624115z15z75z1 <= 8.51
s15 - s75 + 9.624115z15z75z2 <= 8.51
s15 - s179 + 9.851305z15z179z2 <= 8.51
s15 - s144 + 9.657574z15z144z2 <= 8.51
s15 - s139 + 9.647437z15z139z2 <= 8.51
s8 - s41 + 9.834316z8z41z3 <= 8.54
s8 - s175 + 9.785945z8z175z3 <= 8.54
s8 - s130 + 9.859026z8z130z3 <= 8.54
s8 - s138 + 9.824800z8z138z3 <= 8.54
s8 - s139 + 9.940000z8z139z3 <= 8.54
s74 - s168 + 9.655375z74z168z2 <= 8.57
s74 - s168 + 9.655375z74z168z3 <= 8.57
s74 - s171 + 9.753060z74z171z2 <= 8.57
s74 - s171 + 9.753060z74z171z3 <= 8.57
s74 - s41 + 9.935209z74z41z3 <= 8.57
s74 - s175 + 9.900991z74z175z3 <= 8.57
s74 - s54 + 9.934478z74z54z2 <= 8.57
s74 - s130 + 9.957929z74z130z3 <= 8.57
s74 - s138 + 9.936909z74z138z3 <= 8.57
s74 - s61 + 9.994264z74z61z2 <= 8.57
s74 - s75 + 10.031206z74z75z2 <= 8.57
s74 - s179 + 9.985799z74z179z2 <= 8.57
s74 - s144 + 10.061212z74z144z2 <= 8.57
s74 - s139 + 10.028209z74z139z2 <= 8.57
s74 - s139 + 10.028209z74z139z3 <= 8.57
s72 - s139 + 10.014236z72z139z3 <= 8.62
s9 - s128 + 9.707140z9z128z1 <= 8.66
s9 - s54 + 9.752616z9z54z1 <= 8.66
s9 - s80 + 9.756147z9z80z1 <= 8.66
s9 - s189 + 9.938488z9z189z1 <= 8.66
s9 - s61 + 9.868700z9z61z1 <= 8.66
s9 - s75 + 9.953636z9z75z1 <= 8.66
s168 - s171 + 9.788432z168z171z2 <= 8.69
s168 - s171 + 9.788432z168z171z3 <= 8.69
s168 - s138 + 10.140234z168z138z3 <= 8.69
s168 - s61 + 10.179988z168z61z2 <= 8.69
s168 - s75 + 10.204414z168z75z2 <= 8.69
s168 - s179 + 10.191110z168z179z2 <= 8.69
s168 - s144 + 10.230000z168z144z2 <= 8.69
s168 - s139 + 10.213917z168z139z2 <= 8.69
s168 - s139 + 10.213917z168z139z3 <= 8.69
s128 - s54 + 9.822616z128z54z1 <= 8.73
s128 - s80 + 9.828432z128z80z1 <= 8.73
s128 - s189 + 9.985168z128z189z1 <= 8.73
s128 - s61 + 9.983858z128z61z1 <= 8.73
s128 - s75 + 10.070587z128z75z1 <= 8.73
s115 - s41 + 9.846999z115z41z3 <= 8.78
s115 - s54 + 9.959505z115z54z1 <= 8.78
s115 - s80 + 9.957137z115z80z1 <= 8.78
s115 - s130 + 9.843246z115z130z3 <= 8.78
s115 - s138 + 10.109376z115z138z3 <= 8.78
s115 - s61 + 9.853636z115z61z1 <= 8.78
s115 - s75 + 9.931144z115z75z1 <= 8.78
s115 - s139 + 9.886666z115z139z3 <= 8.78
s171 - s144 + 10.393034z171z144z2 <= 8.80
s171 - s139 + 10.395465z171z139z2 <= 8.80
s171 - s139 + 10.395465z171z139z3 <= 8.80
s41 - s130 + 9.977488z41z130z3 <= 8.95
s41 - s139 + 10.081487z41z139z3 <= 8.95
s176 - s61 + 10.184895z176z61z1 <= 8.96
s176 - s75 + 10.086842z176z75z1 <= 8.96
s175 - s138 + 10.068638z175z138z3 <= 9.00
s175 - s139 + 10.337376z175z139z3 <= 9.00
s54 - s80 + 10.036667z54z80z1 <= 9.03
s54 - s179 + 10.110277z54z179z2 <= 9.03
s54 - s144 + 10.394295z54z144z2 <= 9.03
s54 - s139 + 10.270462z54z139z2 <= 9.03
s130 - s139 + 10.175409z130z139z3 <= 9.07
s61 - s144 + 10.353140z61z144z2 <= 9.21
s61 - s139 + 10.243994z61z139z2 <= 9.21
s75 - s144 + 10.302688z75z144z2 <= 9.26
s75 - s139 + 10.360222z75z139z2 <= 9.26

x59x120x2 - 1z59z120z2 <= 0
x59x17x2 - 1z59z17z2 <= 0
x59x15x2 - 1z59z15z2 <= 0
x59x74x2 - 1z59z74z2 <= 0
x59x168x2 - 1z59z168z2 <= 0
x59x171x2 - 1z59z171z2 <= 0
x59x54x2 - 1z59z54z2 <= 0
x59x61x2 - 1z59z61z2 <= 0
x59x75x2 - 1z59z75z2 <= 0
x59x179x2 - 2z59z179z2 <= 0
x59x144x2 - 2z59z144z2 <= 0
x59x139x2 - 1z59z139z2 <= 0
x84x171x2 - 1z84z171z2 <= 0
x84x61x2 - 1z84z61z2 <= 0
x84x75x2 - 1z84z75z2 <= 0
x84x179x2 - 2z84z179z2 <= 0
x84x144x2 - 2z84z144z2 <= 0
x84x139x2 - 1z84z139z2 <= 0
x114x176x1 - 2z114z176z1 <= 0
x114x54x1 - 1z114z54z1 <= 0
x114x54x2 - 1z114z54z2 <= 0
x114x80x1 - 2z114z80z1 <= 0
x114x189x1 - 2z114z189z1 <= 0
x114x61x1 - 1z114z61z1 <= 0
x114x61x2 - 1z114z61z2 <= 0
x114x75x1 - 1z114z75z1 <= 0
x114x75x2 - 1z114z75z2 <= 0
x114x179x2 - 2z114z179z2 <= 0
x114x144x2 - 2z114z144z2 <= 0
x114x139x2 - 1z114z139z2 <= 0
x134x17x2 - 1z134z17z2 <= 0
x134x15x2 - 1z134z15z2 <= 0
x134x74x2 - 1z134z74z2 <= 0
x134x168x2 - 1z134z168z2 <= 0
x134x171x2 - 1z134z171z2 <= 0
x134x54x2 - 1z134z54z2 <= 0
x134x61x2 - 1z134z61z2 <= 0
x134x75x2 - 1z134z75z2 <= 0
x134x179x2 - 2z134z179z2 <= 0
x134x144x2 - 2z134z144z2 <= 0
x134x139x2 - 1z134z139z2 <= 0
x7x139x3 - 1z7z139z3 <= 0
x187x171x2 - 1z187z171z2 <= 0
x187x189x1 - 2z187z189z1 <= 0
x187x61x1 - 1z187z61z1 <= 0
x187x61x2 - 1z187z61z2 <= 0
x187x75x1 - 1z187z75z1 <= 0
x187x75x2 - 1z187z75z2 <= 0
x187x144x2 - 2z187z144z2 <= 0
x187x139x2 - 1z187z139z2 <= 0
x129x176x1 - 2z129z176z1 <= 0
x129x61x1 - 1z129z61z1 <= 0
x129x75x1 - 1z129z75z1 <= 0
x129x139x3 - 1z129z139z3 <= 0
x10x189x1 - 2z10z189z1 <= 0
x10x61x1 - 1z10z61z1 <= 0
x10x75x1 - 1z10z75z1 <= 0
x58x120x3 - 1z58z120z3 <= 0
x58x133x3 - 2z58z133z3 <= 0
x58x39x3 - 2z58z39z3 <= 0
x58x150x3 - 1z58z150z3 <= 0
x58x2x3 - 2z58z2z3 <= 0
x58x28x3 - 1z58z28z3 <= 0
x58x8x3 - 2z58z8z3 <= 0
x58x74x3 - 1z58z74z3 <= 0
x58x72x3 - 2z58z72z3 <= 0
x58x168x3 - 1z58z168z3 <= 0
x58x115x3 - 1z58z115z3 <= 0
x58x171x3 - 1z58z171z3 <= 0
x58x41x3 - 2z58z41z3 <= 0
x58x175x3 - 2z58z175z3 <= 0
x58x130x3 - 2z58z130z3 <= 0
x58x138x3 - 2z58z138z3 <= 0
x58x139x3 - 1z58z139z3 <= 0
x116x120x2 - 1z116z120z2 <= 0
x116x120x3 - 1z116z120z3 <= 0
x116x133x3 - 2z116z133z3 <= 0
x116x39x3 - 2z116z39z3 <= 0
x116x17x2 - 1z116z17z2 <= 0
x116x150x3 - 1z116z150z3 <= 0
x116x2x3 - 2z116z2z3 <= 0
x116x28x3 - 1z116z28z3 <= 0
x116x15x2 - 1z116z15z2 <= 0
x116x8x3 - 2z116z8z3 <= 0
x116x74x2 - 1z116z74z2 <= 0
x116x74x3 - 1z116z74z3 <= 0
x116x72x3 - 2z116z72z3 <= 0
x116x168x2 - 1z116z168z2 <= 0
x116x168x3 - 1z116z168z3 <= 0
x116x115x3 - 1z116z115z3 <= 0
x116x171x2 - 1z116z171z2 <= 0
x116x171x3 - 1z116z171z3 <= 0
x116x41x3 - 2z116z41z3 <= 0
x116x175x3 - 2z116z175z3 <= 0
x116x54x2 - 1z116z54z2 <= 0
x116x130x3 - 2z116z130z3 <= 0
x116x138x3 - 2z116z138z3 <= 0
x116x61x2 - 1z116z61z2 <= 0
x116x75x2 - 1z116z75z2 <= 0
x116x179x2 - 2z116z179z2 <= 0
x116x144x2 - 2z116z144z2 <= 0
x116x139x2 - 1z116z139z2 <= 0
x116x139x3 - 1z116z139z3 <= 0
x120x2x3 - 2z120z2z3 <= 0
x120x15x2 - 1z120z15z2 <= 0
x120x72x3 - 2z120z72z3 <= 0
x120x168x2 - 1z120z168z2 <= 0
x120x168x3 - 1z120z168z3 <= 0
x120x115x3 - 1z120z115z3 <= 0
x120x171x2 - 1z120z171z2 <= 0
x120x171x3 - 1z120z171z3 <= 0
x120x41x3 - 2z120z41z3 <= 0
x120x175x3 - 2z120z175z3 <= 0
x120x54x2 - 1z120z54z2 <= 0
x120x130x3 - 2z120z130z3 <= 0
x120x138x3 - 2z120z138z3 <= 0
x120x61x2 - 1z120z61z2 <= 0
x120x75x2 - 1z120z75z2 <= 0
x120x179x2 - 2z120z179z2 <= 0
x120x144x2 - 2z120z144z2 <= 0
x120x139x2 - 1z120z139z2 <= 0
x120x139x3 - 1z120z139z3 <= 0
x120x0x2 <= 1
x120x0x3 <= 1
x133x2x3 - 2z133z2z3 <= 0
x133x8x3 - 2z133z8z3 <= 0
x133x74x3 - 1z133z74z3 <= 0
x133x72x3 - 2z133z72z3 <= 0
x133x168x3 - 1z133z168z3 <= 0
x133x115x3 - 1z133z115z3 <= 0
x133x171x3 - 1z133z171z3 <= 0
x133x41x3 - 2z133z41z3 <= 0
x133x175x3 - 2z133z175z3 <= 0
x133x130x3 - 2z133z130z3 <= 0
x133x138x3 - 2z133z138z3 <= 0
x133x139x3 - 1z133z139z3 <= 0
x133x0x3 <= 2
x39x28x3 - 1z39z28z3 <= 0
x39x8x3 - 2z39z8z3 <= 0
x39x74x3 - 1z39z74z3 <= 0
x39x168x3 - 1z39z168z3 <= 0
x39x115x3 - 1z39z115z3 <= 0
x39x171x3 - 1z39z171z3 <= 0
x39x41x3 - 2z39z41z3 <= 0
x39x175x3 - 2z39z175z3 <= 0
x39x130x3 - 2z39z130z3 <= 0
x39x138x3 - 2z39z138z3 <= 0
x39x139x3 - 1z39z139z3 <= 0
x39x0x3 <= 2
x17x168x2 - 1z17z168z2 <= 0
x17x171x2 - 1z17z171z2 <= 0
x17x176x1 - 2z17z176z1 <= 0
x17x54x1 - 1z17z54z1 <= 0
x17x54x2 - 1z17z54z2 <= 0
x17x80x1 - 2z17z80z1 <= 0
x17x189x1 - 2z17z189z1 <= 0
x17x61x1 - 1z17z61z1 <= 0
x17x61x2 - 1z17z61z2 <= 0
x17x75x1 - 1z17z75z1 <= 0
x17x75x2 - 1z17z75z2 <= 0
x17x179x2 - 2z17z179z2 <= 0
x17x144x2 - 2z17z144z2 <= 0
x17x139x2 - 1z17z139z2 <= 0
x17x0x1 <= 1
x17x0x2 <= 1
x112x115x1 - 1z112z115z1 <= 0
x112x176x1 - 2z112z176z1 <= 0
x112x54x1 - 1z112z54z1 <= 0
x112x80x1 - 2z112z80z1 <= 0
x112x189x1 - 2z112z189z1 <= 0
x112x61x1 - 1z112z61z1 <= 0
x112x75x1 - 1z112z75z1 <= 0
x112x0x1 <= 2
x150x15x1 - 1z150z15z1 <= 0
x150x8x3 - 2z150z8z3 <= 0
x150x74x3 - 1z150z74z3 <= 0
x150x9x1 - 2z150z9z1 <= 0
x150x168x3 - 1z150z168z3 <= 0
x150x128x1 - 2z150z128z1 <= 0
x150x115x1 - 1z150z115z1 <= 0
x150x115x3 - 1z150z115z3 <= 0
x150x171x3 - 1z150z171z3 <= 0
x150x41x3 - 2z150z41z3 <= 0
x150x176x1 - 2z150z176z1 <= 0
x150x175x3 - 2z150z175z3 <= 0
x150x54x1 - 1z150z54z1 <= 0
x150x80x1 - 2z150z80z1 <= 0
x150x130x3 - 2z150z130z3 <= 0
x150x189x1 - 2z150z189z1 <= 0
x150x138x3 - 2z150z138z3 <= 0
x150x61x1 - 1z150z61z1 <= 0
x150x75x1 - 1z150z75z1 <= 0
x150x139x3 - 1z150z139z3 <= 0
x150x0x1 <= 1
x150x0x3 <= 1
x2x72x3 - 2z2z72z3 <= 0
x2x115x3 - 1z2z115z3 <= 0
x2x41x3 - 2z2z41z3 <= 0
x2x175x3 - 2z2z175z3 <= 0
x2x130x3 - 2z2z130z3 <= 0
x2x138x3 - 2z2z138z3 <= 0
x2x139x3 - 1z2z139z3 <= 0
x2x0x3 <= 2
x28x8x3 - 2z28z8z3 <= 0
x28x74x3 - 1z28z74z3 <= 0
x28x9x1 - 2z28z9z1 <= 0
x28x168x3 - 1z28z168z3 <= 0
x28x128x1 - 2z28z128z1 <= 0
x28x115x1 - 1z28z115z1 <= 0
x28x115x3 - 1z28z115z3 <= 0
x28x171x3 - 1z28z171z3 <= 0
x28x41x3 - 2z28z41z3 <= 0
x28x176x1 - 2z28z176z1 <= 0
x28x175x3 - 2z28z175z3 <= 0
x28x54x1 - 1z28z54z1 <= 0
x28x80x1 - 2z28z80z1 <= 0
x28x130x3 - 2z28z130z3 <= 0
x28x189x1 - 2z28z189z1 <= 0
x28x138x3 - 2z28z138z3 <= 0
x28x61x1 - 1z28z61z1 <= 0
x28x75x1 - 1z28z75z1 <= 0
x28x139x3 - 1z28z139z3 <= 0
x28x0x1 <= 1
x28x0x3 <= 1
x15x115x1 - 1z15z115z1 <= 0
x15x176x1 - 2z15z176z1 <= 0
x15x54x1 - 1z15z54z1 <= 0
x15x54x2 - 1z15z54z2 <= 0
x15x80x1 - 2z15z80z1 <= 0
x15x189x1 - 2z15z189z1 <= 0
x15x61x1 - 1z15z61z1 <= 0
x15x61x2 - 1z15z61z2 <= 0
x15x75x1 - 1z15z75z1 <= 0
x15x75x2 - 1z15z75z2 <= 0
x15x179x2 - 2z15z179z2 <= 0
x15x144x2 - 2z15z144z2 <= 0
x15x139x2 - 1z15z139z2 <= 0
x15x0x1 <= 1
x15x0x2 <= 1
x8x41x3 - 2z8z41z3 <= 0
x8x175x3 - 2z8z175z3 <= 0
x8x130x3 - 2z8z130z3 <= 0
x8x138x3 - 2z8z138z3 <= 0
x8x139x3 - 1z8z139z3 <= 0
x8x0x3 <= 2
x74x168x2 - 1z74z168z2 <= 0
x74x168x3 - 1z74z168z3 <= 0
x74x171x2 - 1z74z171z2 <= 0
x74x171x3 - 1z74z171z3 <= 0
x74x41x3 - 2z74z41z3 <= 0
x74x175x3 - 2z74z175z3 <= 0
x74x54x2 - 1z74z54z2 <= 0
x74x130x3 - 2z74z130z3 <= 0
x74x138x3 - 2z74z138z3 <= 0
x74x61x2 - 1z74z61z2 <= 0
x74x75x2 - 1z74z75z2 <= 0
x74x179x2 - 2z74z179z2 <= 0
x74x144x2 - 2z74z144z2 <= 0
x74x139x2 - 1z74z139z2 <= 0
x74x139x3 - 1z74z139z3 <= 0
x74x0x2 <= 1
x74x0x3 <= 1
x72x139x3 - 1z72z139z3 <= 0
x72x0x3 <= 2
x9x128x1 - 2z9z128z1 <= 0
x9x54x1 - 1z9z54z1 <= 0
x9x80x1 - 2z9z80z1 <= 0
x9x189x1 - 2z9z189z1 <= 0
x9x61x1 - 1z9z61z1 <= 0
x9x75x1 - 1z9z75z1 <= 0
x9x0x1 <= 2
x168x171x2 - 1z168z171z2 <= 0
x168x171x3 - 1z168z171z3 <= 0
x168x138x3 - 2z168z138z3 <= 0
x168x61x2 - 1z168z61z2 <= 0
x168x75x2 - 1z168z75z2 <= 0
x168x179x2 - 2z168z179z2 <= 0
x168x144x2 - 2z168z144z2 <= 0
x168x139x2 - 1z168z139z2 <= 0
x168x139x3 - 1z168z139z3 <= 0
x168x0x2 <= 1
x168x0x3 <= 1
x128x54x1 - 1z128z54z1 <= 0
x128x80x1 - 2z128z80z1 <= 0
x128x189x1 - 2z128z189z1 <= 0
x128x61x1 - 1z128z61z1 <= 0
x128x75x1 - 1z128z75z1 <= 0
x128x0x1 <= 2
x115x41x3 - 2z115z41z3 <= 0
x115x54x1 - 1z115z54z1 <= 0
x115x80x1 - 2z115z80z1 <= 0
x115x130x3 - 2z115z130z3 <= 0
x115x138x3 - 2z115z138z3 <= 0
x115x61x1 - 1z115z61z1 <= 0
x115x75x1 - 1z115z75z1 <= 0
x115x139x3 - 1z115z139z3 <= 0
x115x0x1 <= 1
x115x0x3 <= 1
x171x144x2 - 2z171z144z2 <= 0
x171x139x2 - 1z171z139z2 <= 0
x171x139x3 - 1z171z139z3 <= 0
x171x0x2 <= 1
x171x0x3 <= 1
x41x130x3 - 2z41z130z3 <= 0
x41x139x3 - 1z41z139z3 <= 0
x41x0x3 <= 2
x176x61x1 - 1z176z61z1 <= 0
x176x75x1 - 1z176z75z1 <= 0
x176x0x1 <= 2
x175x138x3 - 2z175z138z3 <= 0
x175x139x3 - 1z175z139z3 <= 0
x175x0x3 <= 2
x54x80x1 - 2z54z80z1 <= 0
x54x179x2 - 2z54z179z2 <= 0
x54x144x2 - 2z54z144z2 <= 0
x54x139x2 - 1z54z139z2 <= 0
x54x0x1 <= 1
x54x0x2 <= 1
x80x0x1 <= 2
x130x139x3 - 1z130z139z3 <= 0
x130x0x3 <= 2
x189x0x1 <= 2
x138x0x3 <= 2
x61x144x2 - 2z61z144z2 <= 0
x61x139x2 - 1z61z139z2 <= 0
x61x0x1 <= 1
x61x0x2 <= 1
x75x144x2 - 2z75z144z2 <= 0
x75x139x2 - 1z75z139z2 <= 0
x75x0x1 <= 1
x75x0x2 <= 1
x179x0x2 <= 2
x144x0x2 <= 2
x139x0x2 <= 1
x139x0x3 <= 1

Bounds
s59 = 6.304616
s84 = 7.330022
s114 = 7.470062
s134 = 6.968350
s7 = 7.601380
s187 = 7.622666
s129 = 7.692450
s10 = 7.749303
s66 = 7.916705
s22 = 7.921537
s5 = 8.099837
s58 = 5.972670
s116 = 5.970000
7.220000 <= s120 <= 8.220000
7.220000 <= s133 <= 8.220000
7.250000 <= s39 <= 8.250000
7.300000 <= s17 <= 8.300000
7.310000 <= s112 <= 8.310000
7.330000 <= s150 <= 8.330000
7.380000 <= s2 <= 8.380000
7.380000 <= s28 <= 8.380000
7.510000 <= s15 <= 8.510000
7.540000 <= s8 <= 8.540000
7.570000 <= s74 <= 8.570000
7.620000 <= s72 <= 8.620000
7.660000 <= s9 <= 8.660000
7.690000 <= s168 <= 8.690000
7.730000 <= s128 <= 8.730000
7.780000 <= s115 <= 8.780000
7.800000 <= s171 <= 8.800000
7.950000 <= s41 <= 8.950000
7.960000 <= s176 <= 8.960000
8.000000 <= s175 <= 9.000000
8.030000 <= s54 <= 9.030000
8.050000 <= s80 <= 9.050000
8.070000 <= s130 <= 9.070000
8.110000 <= s189 <= 9.110000
8.200000 <= s138 <= 9.200000
8.210000 <= s61 <= 9.210000
8.260000 <= s75 <= 9.260000
8.270000 <= s179 <= 9.270000
8.400000 <= s144 <= 9.400000
8.490000 <= s139 <= 9.490000

General
x59x120x2 x59x17x2 x59x15x2 x59x74x2 x59x168x2 x59x171x2 x59x54x2 x59x61x2 x59x75x2 x59x179x2 x59x144x2 x59x139x2 
x84x171x2 x84x61x2 x84x75x2 x84x179x2 x84x144x2 x84x139x2 
x114x176x1 x114x54x1 x114x54x2 x114x80x1 x114x189x1 x114x61x1 x114x61x2 x114x75x1 x114x75x2 x114x179x2 x114x144x2 x114x139x2 
x134x17x2 x134x15x2 x134x74x2 x134x168x2 x134x171x2 x134x54x2 x134x61x2 x134x75x2 x134x179x2 x134x144x2 x134x139x2 
x7x139x3 
x187x171x2 x187x189x1 x187x61x1 x187x61x2 x187x75x1 x187x75x2 x187x144x2 x187x139x2 
x129x176x1 x129x61x1 x129x75x1 x129x139x3 
x10x189x1 x10x61x1 x10x75x1 



x58x120x3 x58x133x3 x58x39x3 x58x150x3 x58x2x3 x58x28x3 x58x8x3 x58x74x3 x58x72x3 x58x168x3 x58x115x3 x58x171x3 x58x41x3 x58x175x3 x58x130x3 x58x138x3 x58x139x3 
x116x120x2 x116x120x3 x116x133x3 x116x39x3 x116x17x2 x116x150x3 x116x2x3 x116x28x3 x116x15x2 x116x8x3 x116x74x2 x116x74x3 x116x72x3 x116x168x2 x116x168x3 x116x115x3 x116x171x2 x116x171x3 x116x41x3 x116x175x3 x116x54x2 x116x130x3 x116x138x3 x116x61x2 x116x75x2 x116x179x2 x116x144x2 x116x139x2 x116x139x3 
x120x2x3 x120x15x2 x120x72x3 x120x168x2 x120x168x3 x120x115x3 x120x171x2 x120x171x3 x120x41x3 x120x175x3 x120x54x2 x120x130x3 x120x138x3 x120x61x2 x120x75x2 x120x179x2 x120x144x2 x120x139x2 x120x139x3 x120x0x2 x120x0x3 
x133x2x3 x133x8x3 x133x74x3 x133x72x3 x133x168x3 x133x115x3 x133x171x3 x133x41x3 x133x175x3 x133x130x3 x133x138x3 x133x139x3 x133x0x3 
x39x28x3 x39x8x3 x39x74x3 x39x168x3 x39x115x3 x39x171x3 x39x41x3 x39x175x3 x39x130x3 x39x138x3 x39x139x3 x39x0x3 
x17x168x2 x17x171x2 x17x176x1 x17x54x1 x17x54x2 x17x80x1 x17x189x1 x17x61x1 x17x61x2 x17x75x1 x17x75x2 x17x179x2 x17x144x2 x17x139x2 x17x0x1 x17x0x2 
x112x115x1 x112x176x1 x112x54x1 x112x80x1 x112x189x1 x112x61x1 x112x75x1 x112x0x1 
x150x15x1 x150x8x3 x150x74x3 x150x9x1 x150x168x3 x150x128x1 x150x115x1 x150x115x3 x150x171x3 x150x41x3 x150x176x1 x150x175x3 x150x54x1 x150x80x1 x150x130x3 x150x189x1 x150x138x3 x150x61x1 x150x75x1 x150x139x3 x150x0x1 x150x0x3 
x2x72x3 x2x115x3 x2x41x3 x2x175x3 x2x130x3 x2x138x3 x2x139x3 x2x0x3 
x28x8x3 x28x74x3 x28x9x1 x28x168x3 x28x128x1 x28x115x1 x28x115x3 x28x171x3 x28x41x3 x28x176x1 x28x175x3 x28x54x1 x28x80x1 x28x130x3 x28x189x1 x28x138x3 x28x61x1 x28x75x1 x28x139x3 x28x0x1 x28x0x3 
x15x115x1 x15x176x1 x15x54x1 x15x54x2 x15x80x1 x15x189x1 x15x61x1 x15x61x2 x15x75x1 x15x75x2 x15x179x2 x15x144x2 x15x139x2 x15x0x1 x15x0x2 
x8x41x3 x8x175x3 x8x130x3 x8x138x3 x8x139x3 x8x0x3 
x74x168x2 x74x168x3 x74x171x2 x74x171x3 x74x41x3 x74x175x3 x74x54x2 x74x130x3 x74x138x3 x74x61x2 x74x75x2 x74x179x2 x74x144x2 x74x139x2 x74x139x3 x74x0x2 x74x0x3 
x72x139x3 x72x0x3 
x9x128x1 x9x54x1 x9x80x1 x9x189x1 x9x61x1 x9x75x1 x9x0x1 
x168x171x2 x168x171x3 x168x138x3 x168x61x2 x168x75x2 x168x179x2 x168x144x2 x168x139x2 x168x139x3 x168x0x2 x168x0x3 
x128x54x1 x128x80x1 x128x189x1 x128x61x1 x128x75x1 x128x0x1 
x115x41x3 x115x54x1 x115x80x1 x115x130x3 x115x138x3 x115x61x1 x115x75x1 x115x139x3 x115x0x1 x115x0x3 
x171x144x2 x171x139x2 x171x139x3 x171x0x2 x171x0x3 
x41x130x3 x41x139x3 x41x0x3 
x176x61x1 x176x75x1 x176x0x1 
x175x138x3 x175x139x3 x175x0x3 
x54x80x1 x54x179x2 x54x144x2 x54x139x2 x54x0x1 x54x0x2 
x80x0x1 
x130x139x3 x130x0x3 
x189x0x1 
x138x0x3 
x61x144x2 x61x139x2 x61x0x1 x61x0x2 
x75x144x2 x75x139x2 x75x0x1 x75x0x2 
x179x0x2 
x144x0x2 
x139x0x2 x139x0x3 

Binaries
y120 y133 y39 y17 y112 y150 y2 y28 y15 y8 y74 y72 y9 y168 y128 y115 y171 y41 y176 y175 y54 y80 y130 y189 y138 y61 y75 y179 y144 y139 
z59z120z2 z59z17z2 z59z15z2 z59z74z2 z59z168z2 z59z171z2 z59z54z2 z59z61z2 z59z75z2 z59z179z2 z59z144z2 z59z139z2 
z84z171z2 z84z61z2 z84z75z2 z84z179z2 z84z144z2 z84z139z2 
z114z176z1 z114z54z1 z114z54z2 z114z80z1 z114z189z1 z114z61z1 z114z61z2 z114z75z1 z114z75z2 z114z179z2 z114z144z2 z114z139z2 
z134z17z2 z134z15z2 z134z74z2 z134z168z2 z134z171z2 z134z54z2 z134z61z2 z134z75z2 z134z179z2 z134z144z2 z134z139z2 
z7z139z3 
z187z171z2 z187z189z1 z187z61z1 z187z61z2 z187z75z1 z187z75z2 z187z144z2 z187z139z2 
z129z176z1 z129z61z1 z129z75z1 z129z139z3 
z10z189z1 z10z61z1 z10z75z1 



z58z120z3 z58z133z3 z58z39z3 z58z150z3 z58z2z3 z58z28z3 z58z8z3 z58z74z3 z58z72z3 z58z168z3 z58z115z3 z58z171z3 z58z41z3 z58z175z3 z58z130z3 z58z138z3 z58z139z3 
z116z120z2 z116z120z3 z116z133z3 z116z39z3 z116z17z2 z116z150z3 z116z2z3 z116z28z3 z116z15z2 z116z8z3 z116z74z2 z116z74z3 z116z72z3 z116z168z2 z116z168z3 z116z115z3 z116z171z2 z116z171z3 z116z41z3 z116z175z3 z116z54z2 z116z130z3 z116z138z3 z116z61z2 z116z75z2 z116z179z2 z116z144z2 z116z139z2 z116z139z3 
z120z2z3 z120z15z2 z120z72z3 z120z168z2 z120z168z3 z120z115z3 z120z171z2 z120z171z3 z120z41z3 z120z175z3 z120z54z2 z120z130z3 z120z138z3 z120z61z2 z120z75z2 z120z179z2 z120z144z2 z120z139z2 z120z139z3 
z133z2z3 z133z8z3 z133z74z3 z133z72z3 z133z168z3 z133z115z3 z133z171z3 z133z41z3 z133z175z3 z133z130z3 z133z138z3 z133z139z3 
z39z28z3 z39z8z3 z39z74z3 z39z168z3 z39z115z3 z39z171z3 z39z41z3 z39z175z3 z39z130z3 z39z138z3 z39z139z3 
z17z168z2 z17z171z2 z17z176z1 z17z54z1 z17z54z2 z17z80z1 z17z189z1 z17z61z1 z17z61z2 z17z75z1 z17z75z2 z17z179z2 z17z144z2 z17z139z2 
z112z115z1 z112z176z1 z112z54z1 z112z80z1 z112z189z1 z112z61z1 z112z75z1 
z150z15z1 z150z8z3 z150z74z3 z150z9z1 z150z168z3 z150z128z1 z150z115z1 z150z115z3 z150z171z3 z150z41z3 z150z176z1 z150z175z3 z150z54z1 z150z80z1 z150z130z3 z150z189z1 z150z138z3 z150z61z1 z150z75z1 z150z139z3 
z2z72z3 z2z115z3 z2z41z3 z2z175z3 z2z130z3 z2z138z3 z2z139z3 
z28z8z3 z28z74z3 z28z9z1 z28z168z3 z28z128z1 z28z115z1 z28z115z3 z28z171z3 z28z41z3 z28z176z1 z28z175z3 z28z54z1 z28z80z1 z28z130z3 z28z189z1 z28z138z3 z28z61z1 z28z75z1 z28z139z3 
z15z115z1 z15z176z1 z15z54z1 z15z54z2 z15z80z1 z15z189z1 z15z61z1 z15z61z2 z15z75z1 z15z75z2 z15z179z2 z15z144z2 z15z139z2 
z8z41z3 z8z175z3 z8z130z3 z8z138z3 z8z139z3 
z74z168z2 z74z168z3 z74z171z2 z74z171z3 z74z41z3 z74z175z3 z74z54z2 z74z130z3 z74z138z3 z74z61z2 z74z75z2 z74z179z2 z74z144z2 z74z139z2 z74z139z3 
z72z139z3 
z9z128z1 z9z54z1 z9z80z1 z9z189z1 z9z61z1 z9z75z1 
z168z171z2 z168z171z3 z168z138z3 z168z61z2 z168z75z2 z168z179z2 z168z144z2 z168z139z2 z168z139z3 
z128z54z1 z128z80z1 z128z189z1 z128z61z1 z128z75z1 
z115z41z3 z115z54z1 z115z80z1 z115z130z3 z115z138z3 z115z61z1 z115z75z1 z115z139z3 
z171z144z2 z171z139z2 z171z139z3 
z41z130z3 z41z139z3 
z176z61z1 z176z75z1 
z175z138z3 z175z139z3 
z54z80z1 z54z179z2 z54z144z2 z54z139z2 

z130z139z3 


z61z144z2 z61z139z2 
z75z144z2 z75z139z2 




End